NAME : instances/clustered-diverse-tsp/instance-45.tsp
COMMENT : No Comment
TYPE : TSP
DIMENSION: 50
EDGE_WEIGHT_TYPE : EUC_2D
NODE_COORD_SECTION
1 1635 1081 
2 352 911 
3 1519 1913 
4 344 1787 
5 1499 1959 
6 1603 1970 
7 391 656 
8 519 863 
9 1469 835 
10 527 891 
11 643 1647 
12 187 2030 
13 288 1903 
14 447 708 
15 459 866 
16 358 1834 
17 453 751 
18 390 888 
19 213 1963 
20 523 658 
21 380 806 
22 511 906 
23 1366 800 
24 1755 1239 
25 540 811 
26 1440 973 
27 1650 1914 
28 1445 921 
29 484 855 
30 419 828 
31 388 854 
32 1658 2001 
33 270 1774 
34 469 748 
35 285 1829 
36 658 1623 
37 386 1927 
38 1507 1997 
39 1532 1949 
40 1597 1235 
41 1401 824 
42 727 1704 
43 397 848 
44 486 862 
45 503 846 
46 349 1804 
47 329 1944 
48 1513 1907 
49 352 1789 
50 440 1940 
EOF
